s td 52 5 56
b 1 1 2 15
b 2 13 14 28
b 3 29 43 44
b 4 42 55 56
b 5 2 3 15 16
b 6 12 13 27 28
b 7 3 4 18 33 48
b 8 4 5 18 33 48
b 9 5 18 20 33 48
b 10 5 20 33 35 48
b 11 5 20 35 48 50
b 12 5 7 20 35 50
b 13 5 6 7 20
b 14 7 20 22 35 50
b 15 7 22 35 37 50
b 16 7 22 37 50 52
b 17 7 9 22 37 52
b 18 7 8 9 22
b 19 9 22 24 37 52
b 20 9 24 37 39 52
b 21 9 24 39 52 54
b 22 9 11 24 39 54
b 23 9 10 11 24
b 24 11 24 26 39 54
b 25 11 26 39 41 54
b 26 11 26 28 41 54
b 27 11 26 27 28 41
b 28 11 12 26 27 28
b 29 28 41 42 54
b 30 26 39 40 41 54
b 31 11 24 25 26 39
b 32 39 52 53 54
b 33 24 37 38 39 52
b 34 9 22 23 24 37
b 35 37 50 51 52
b 36 22 35 36 37 50
b 37 7 20 21 22 35
b 38 35 48 49 50
b 39 20 33 34 35 48
b 40 5 18 19 20 33
b 41 3 18 33 46 48
b 42 3 18 31 33 46
b 43 3 16 18 31 46
b 44 3 16 29 31 46
b 45 3 15 16 29
b 46 16 29 31 45 46
b 47 16 29 30 31 45
b 48 3 16 17 18 31
b 49 18 31 32 33 46
b 50 33 46 47 48
b 51 29 30 44 45
b 52 41 42 54 55
1 5
2 6
3 51
4 52
5 45
6 28
7 8
7 41
8 9
9 10
9 40
10 11
10 39
11 12
11 38
12 13
12 14
14 15
14 37
15 16
15 36
16 17
16 35
17 18
17 19
19 20
19 34
20 21
20 33
21 22
21 32
22 23
22 24
24 25
24 31
25 26
25 30
26 27
26 29
27 28
29 52
41 42
41 50
42 43
42 49
43 44
43 48
44 45
44 46
46 47
47 51
